50, 665
27, 27
31, 31
29, 29
46, 46
10, 10
24, 24
27, 27
32, 32
13, 13
25, 25
5, 5
46, 46
29, 29
38, 38
16, 16
10, 10
32, 32
45, 45
19, 19
4, 4
32, 32
41, 41
28, 28
39, 39
5, 5
31, 31
18, 18
28, 28
34, 34
30, 30
30, 30
33, 33
30, 30
47, 47
44, 44
5, 5
31, 31
42, 42
18, 18
35, 35
9, 9
45, 45
47, 47
8, 8
1, 1
44, 44
31, 31
21, 21
12, 12
3, 3
